nodes = 329;
edges = 697;
starts = [1, 1, 2, 2, 3, 3, 3, 4, 4, 5, 5, 6, 6, 6, 7, 7, 7, 8, 8, 9, 9, 10, 10, 11, 11, 11, 11, 12, 12, 13, 13, 13, 14, 15, 15, 15, 16, 16, 17, 18, 18, 19, 19, 20, 21, 21, 21, 22, 22, 23, 23, 24, 24, 24, 25, 25, 26, 27, 27, 28, 28, 28, 29, 29, 29, 30, 30, 31, 32, 33, 33, 34, 34, 35, 35, 36, 36, 37, 37, 38, 38, 39, 40, 40, 40, 40, 41, 41, 41, 42, 42, 43, 44, 45, 45, 46, 46, 46, 47, 47, 48, 48, 48, 49, 49, 49, 50, 50, 50, 51, 51, 51, 52, 52, 52, 52, 53, 54, 54, 55, 55, 55, 56, 56, 56, 57, 58, 58, 59, 59, 59, 60, 60, 61, 61, 62, 63, 63, 63, 64, 64, 64, 65, 65, 65, 66, 66, 67, 68, 68, 69, 69, 70, 70, 71, 71, 71, 72, 72, 72, 73, 73, 74, 74, 74, 75, 75, 76, 76, 77, 77, 77, 78, 78, 79, 79, 80, 80, 80, 81, 81, 82, 82, 83, 83, 84, 84, 85, 85, 85, 86, 86, 87, 87, 88, 88, 89, 89, 90, 90, 91, 92, 92, 92, 93, 93, 94, 94, 94, 95, 95, 95, 96, 96, 96, 97, 97, 98, 98, 99, 99, 100, 100, 101, 102, 102, 103, 104, 104, 105, 106, 106, 106, 107, 107, 108, 108, 109, 109, 109, 110, 110, 111, 111, 111, 112, 112, 113, 113, 113, 114, 114, 114, 115, 115, 116, 116, 116, 117, 117, 117, 118, 118, 119, 119, 120, 121, 122, 122, 122, 123, 123, 123, 124, 124, 125, 125, 126, 127, 127, 127, 128, 129, 130, 130, 131, 131, 131, 132, 132, 133, 134, 135, 135, 135, 136, 137, 137, 137, 138, 139, 139, 140, 140, 140, 141, 141, 141, 142, 143, 144, 144, 144, 145, 146, 147, 147, 148, 148, 148, 149, 150, 150, 151, 151, 151, 152, 152, 153, 154, 154, 155, 155, 156, 156, 156, 157, 157, 157, 158, 158, 158, 159, 159, 159, 160, 160, 161, 161, 161, 162, 162, 162, 163, 163, 163, 164, 164, 165, 165, 165, 166, 166, 166, 167, 167, 168, 168, 169, 170, 170, 171, 171, 171, 171, 172, 172, 173, 174, 174, 175, 175, 176, 177, 177, 177, 178, 178, 179, 180, 180, 181, 181, 181, 182, 182, 183, 183, 183, 184, 185, 185, 185, 186, 186, 187, 187, 188, 188, 189, 189, 190, 190, 190, 191, 191, 192, 192, 193, 193, 194, 194, 194, 195, 195, 196, 196, 197, 198, 199, 199, 199, 200, 200, 200, 201, 201, 202, 202, 202, 203, 203, 204, 204, 205, 206, 206, 206, 207, 207, 208, 208, 208, 209, 209, 210, 210, 211, 211, 212, 212, 213, 213, 213, 214, 214, 215, 215, 216, 216, 217, 218, 218, 219, 220, 221, 222, 222, 222, 223, 223, 223, 224, 224, 224, 225, 226, 226, 227, 228, 228, 229, 229, 230, 230, 231, 231, 231, 232, 232, 233, 233, 234, 234, 234, 235, 235, 235, 236, 236, 237, 237, 237, 238, 238, 238, 239, 240, 240, 240, 241, 241, 242, 242, 242, 243, 243, 244, 244, 245, 245, 245, 246, 246, 247, 247, 248, 248, 249, 249, 250, 250, 251, 252, 252, 253, 253, 254, 254, 255, 255, 256, 256, 256, 257, 257, 257, 258, 258, 258, 259, 259, 260, 261, 261, 262, 263, 263, 263, 264, 264, 265, 266, 267, 268, 269, 269, 269, 270, 270, 271, 271, 272, 272, 273, 273, 274, 275, 275, 276, 277, 277, 277, 278, 279, 279, 280, 280, 281, 281, 282, 283, 283, 284, 284, 284, 285, 285, 286, 286, 287, 287, 288, 288, 288, 289, 289, 290, 290, 290, 291, 291, 292, 292, 293, 293, 294, 294, 295, 295, 296, 296, 297, 297, 298, 298, 299, 300, 300, 301, 302, 303, 304, 304, 305, 305, 306, 307, 307, 308, 308, 309, 309, 310, 310, 310, 311, 311, 311, 312, 312, 312, 313, 314, 314, 315, 315, 316, 316, 316, 317, 317, 318, 318, 319, 319, 320, 320, 320, 321, 321, 322, 322, 322, 323, 323, 324, 325, 325, 326, 326, 326, 327, 327, 328, 328, 329];
ends = [124, 135, 44, 85, 10, 27, 245, 163, 291, 4, 161, 71, 172, 255, 43, 127, 323, 9, 70, 10, 27, 3, 13, 149, 185, 207, 258, 67, 83, 10, 14, 165, 13, 16, 60, 62, 100, 265, 179, 19, 26, 18, 285, 21, 20, 141, 183, 77, 115, 19, 43, 23, 25, 202, 24, 140, 88, 8, 212, 150, 151, 233, 168, 223, 224, 204, 318, 170, 217, 142, 274, 32, 33, 234, 302, 76, 257, 24, 42, 226, 291, 34, 92, 163, 291, 294, 200, 240, 310, 202, 247, 37, 181, 46, 123, 45, 47, 241, 46, 241, 147, 169, 267, 131, 223, 315, 52, 224, 312, 143, 158, 313, 50, 160, 228, 232, 234, 167, 306, 94, 207, 272, 59, 61, 98, 87, 132, 268, 56, 77, 216, 15, 104, 56, 236, 155, 117, 146, 254, 66, 68, 91, 144, 148, 320, 64, 193, 68, 69, 71, 66, 68, 9, 295, 6, 72, 73, 69, 71, 141, 75, 172, 95, 303, 324, 36, 80, 78, 79, 22, 59, 130, 79, 80, 78, 201, 78, 81, 82, 72, 80, 246, 248, 12, 84, 83, 172, 2, 86, 281, 87, 118, 260, 304, 25, 308, 203, 277, 91, 279, 152, 40, 163, 222, 228, 301, 55, 96, 216, 74, 97, 101, 94, 130, 200, 95, 266, 174, 214, 233, 273, 16, 227, 218, 97, 101, 243, 15, 121, 311, 113, 130, 311, 109, 325, 38, 154, 103, 107, 208, 114, 219, 22, 115, 182, 200, 288, 106, 115, 157, 110, 131, 294, 111, 113, 171, 213, 322, 63, 199, 290, 2, 86, 157, 235, 222, 104, 131, 283, 312, 45, 162, 308, 1, 256, 30, 237, 176, 7, 137, 220, 157, 112, 96, 106, 49, 114, 122, 58, 286, 316, 239, 1, 267, 320, 182, 127, 177, 184, 145, 57, 86, 25, 162, 202, 21, 171, 263, 275, 51, 65, 199, 206, 287, 63, 48, 277, 65, 214, 269, 216, 28, 186, 28, 90, 270, 12, 153, 215, 60, 62, 100, 227, 162, 242, 295, 113, 119, 128, 51, 292, 328, 167, 288, 327, 52, 238, 5, 221, 300, 123, 140, 156, 4, 92, 161, 209, 309, 13, 234, 284, 213, 251, 252, 159, 235, 29, 238, 48, 134, 160, 116, 141, 263, 271, 6, 257, 289, 149, 269, 240, 305, 198, 137, 176, 178, 39, 99, 178, 179, 257, 81, 82, 271, 111, 136, 21, 194, 253, 276, 11, 147, 267, 150, 188, 125, 188, 189, 190, 187, 192, 150, 191, 279, 189, 190, 187, 194, 191, 279, 183, 192, 199, 210, 256, 126, 127, 229, 197, 117, 144, 194, 41, 96, 112, 79, 180, 24, 42, 140, 89, 310, 286, 318, 249, 144, 210, 256, 11, 55, 109, 164, 209, 208, 244, 195, 206, 205, 247, 8, 242, 116, 166, 271, 148, 237, 84, 278, 59, 94, 145, 103, 107, 102, 230, 5, 92, 120, 300, 29, 49, 314, 29, 50, 312, 31, 38, 154, 110, 31, 232, 42, 196, 7, 220, 233, 273, 287, 283, 312, 28, 231, 35, 53, 165, 119, 167, 311, 30, 237, 61, 214, 236, 160, 168, 239, 238, 54, 175, 288, 26, 46, 156, 212, 244, 114, 219, 242, 325, 3, 134, 296, 201, 229, 246, 248, 44, 249, 85, 205, 252, 262, 166, 166, 250, 183, 322, 63, 282, 67, 83, 124, 195, 206, 172, 180, 278, 11, 269, 320, 95, 266, 259, 260, 304, 261, 171, 253, 322, 250, 262, 264, 265, 135, 58, 148, 174, 258, 17, 153, 181, 213, 89, 203, 39, 99, 177, 142, 274, 275, 89, 147, 207, 17, 64, 193, 295, 328, 139, 211, 254, 122, 208, 35, 165, 326, 19, 307, 132, 204, 231, 293, 112, 159, 240, 129, 173, 117, 317, 319, 38, 40, 326, 329, 138, 287, 40, 321, 70, 280, 245, 297, 296, 298, 297, 299, 298, 161, 222, 225, 53, 74, 87, 118, 54, 306, 119, 285, 323, 45, 123, 93, 242, 41, 175, 203, 105, 106, 235, 50, 122, 232, 143, 315, 316, 49, 314, 29, 133, 314, 290, 319, 125, 186, 290, 317, 65, 135, 258, 108, 155, 116, 253, 263, 7, 307, 74, 109, 244, 284, 292, 328, 129, 289, 158, 280, 326];
weights = [25, 51, 80, 5, 18, 42, 164, 11, 87, 61, 12, 22, 46, 63, 76, 27, 65, 5, 19, 28, 6, 18, 22, 131, 46, 91, 77, 152, 40, 22, 138, 31, 138, 79, 10, 39, 71, 161, 54, 12, 64, 12, 63, 43, 43, 251, 62, 530, 38, 65, 238, 59, 28, 100, 28, 97, 27, 8, 21, 34, 33, 70, 57, 29, 24, 57, 17, 37, 54, 13, 12, 35, 34, 37, 136, 38, 185, 209, 138, 13, 71, 17, 118, 96, 21, 17, 52, 133, 50, 104, 32, 68, 17, 37, 37, 37, 26, 17, 26, 26, 45, 21, 76, 175, 36, 71, 35, 62, 62, 8, 77, 21, 35, 19, 60, 61, 128, 53, 82, 61, 98, 45, 49, 94, 72, 70, 311, 11, 49, 82, 57, 10, 49, 94, 21, 77, 48, 30, 25, 6, 54, 157, 20, 133, 104, 6, 51, 8, 6, 78, 52, 6, 22, 60, 22, 6, 107, 75, 6, 67, 22, 147, 24, 79, 5, 42, 59, 12, 7, 530, 82, 208, 9, 6, 9, 67, 6, 5, 143, 192, 5, 66, 26, 40, 38, 38, 180, 5, 76, 80, 40, 6, 147, 6, 36, 292, 101, 46, 40, 127, 40, 118, 79, 74, 41, 35, 61, 16, 244, 24, 7, 55, 16, 128, 35, 7, 112, 44, 127, 238, 11, 71, 52, 32, 57, 9, 10, 54, 181, 46, 75, 328, 66, 9, 30, 30, 14, 46, 9, 51, 7, 64, 44, 11, 238, 62, 71, 75, 53, 134, 7, 29, 82, 11, 53, 63, 248, 181, 48, 233, 168, 76, 6, 49, 25, 29, 181, 49, 72, 35, 37, 124, 17, 25, 23, 10, 44, 161, 27, 67, 197, 121, 48, 128, 328, 175, 29, 49, 311, 91, 13, 67, 51, 48, 85, 41, 67, 260, 66, 51, 39, 70, 97, 168, 165, 251, 144, 73, 11, 8, 20, 71, 169, 122, 30, 45, 46, 133, 43, 121, 94, 34, 71, 33, 43, 120, 31, 40, 38, 39, 11, 27, 32, 257, 68, 218, 134, 49, 121, 77, 31, 8, 56, 77, 48, 19, 65, 12, 87, 40, 124, 168, 257, 11, 79, 61, 43, 42, 31, 18, 37, 61, 36, 155, 56, 59, 57, 21, 21, 56, 94, 63, 144, 149, 246, 46, 51, 24, 36, 6, 50, 136, 230, 260, 175, 33, 11, 17, 56, 153, 84, 149, 9, 37, 238, 41, 62, 12, 60, 242, 46, 100, 88, 71, 21, 77, 15, 11, 73, 11, 35, 119, 6, 51, 73, 6, 40, 88, 50, 6, 12, 88, 92, 89, 58, 73, 76, 83, 53, 233, 71, 92, 52, 35, 62, 67, 245, 100, 104, 165, 101, 45, 63, 52, 5, 169, 57, 88, 91, 98, 51, 48, 49, 49, 45, 89, 57, 73, 66, 20, 139, 248, 61, 65, 43, 65, 31, 40, 57, 244, 51, 11, 38, 12, 25, 91, 74, 29, 66, 29, 36, 76, 24, 62, 117, 38, 13, 22, 69, 81, 64, 27, 208, 198, 25, 14, 231, 50, 42, 55, 70, 14, 37, 128, 18, 25, 59, 69, 41, 8, 25, 65, 8, 65, 21, 21, 21, 136, 50, 53, 334, 17, 68, 139, 50, 68, 9, 50, 31, 164, 158, 146, 127, 39, 25, 73, 8, 40, 37, 5, 97, 21, 36, 155, 97, 60, 123, 25, 30, 38, 148, 23, 58, 88, 51, 84, 176, 77, 133, 16, 112, 9, 24, 7, 143, 7, 149, 168, 71, 25, 7, 7, 17, 48, 11, 121, 6, 133, 79, 44, 37, 65, 108, 105, 18, 11, 24, 11, 16, 39, 46, 46, 101, 44, 51, 6, 141, 87, 47, 82, 30, 72, 14, 18, 37, 276, 63, 63, 91, 63, 50, 61, 71, 77, 53, 42, 24, 168, 21, 22, 71, 21, 5, 8, 99, 61, 17, 25, 60, 141, 146, 28, 28, 24, 24, 44, 44, 40, 66, 37, 54, 79, 6, 40, 51, 130, 52, 63, 63, 37, 17, 7, 118, 50, 134, 45, 46, 66, 69, 62, 35, 55, 21, 32, 27, 71, 32, 82, 13, 27, 21, 20, 16, 63, 22, 787, 104, 85, 16, 63, 12, 181, 123, 71, 65, 63, 5, 29, 31, 276, 5, 31, 149, 191, 8, 87, 7];
start = 156;
end= 54;
p = [0, 0, 0, 0, 1519, 0, 0, 0, 0, 0, 0, 0, 0, 0, 0, 0, 0, 0, 0, 0, 0, 0, 0, 0, 0, 0, 557, 0, 0, 0, 0, 0, 0, 0, 0, 0, 0, 0, 0, 0, 0, 0, 0, 0, 0, 0, 0, 0, 0, 0, 0, 0, 0, 0, 0, 0, 0, 0, 0, 0, 0, 0, 0, 0, 0, 0, 0, 0, 0, 0, 0, 0, 0, 0, 0, 0, 0, 0, 0, 0, 0, 0, 0, 0, 0, 0, 0, 0, 0, 0, 0, 0, 0, 0, 0, 0, 1665, 0, 0, 0, 0, 1350, 0, 0, 0, 0, 0, 0, 0, 0, 0, 0, 0, 0, 0, 0, 0, 0, 0, 0, 0, 0, 0, 0, 0, 0, 0, 0, 0, 0, 0, 0, 0, 0, 0, 0, 0, 0, 0, 0, 0, 0, 0, 0, 0, 413, 0, 0, 0, 0, 1820, 0, 0, 0, 0, 0, 0, 0, 0, 0, 1389, 1031, 0, 0, 0, 0, 0, 0, 0, 0, 0, 0, 0, 0, 0, 0, 0, 0, 0, 0, 0, 0, 0, 0, 0, 0, 0, 0, 0, 0, 0, 0, 2165, 0, 0, 0, 0, 0, 0, 0, 0, 0, 0, 0, 0, 0, 0, 0, 0, 0, 0, 0, 0, 0, 0, 791, 0, 0, 0, 0, 1978, 2266, 0, 0, 0, 0, 0, 0, 0, 0, 1364, 0, 0, 1817, 0, 0, 0, 1725, 0, 0, 0, 0, 0, 0, 0, 0, 0, 0, 0, 0, 0, 0, 0, 0, 0, 0, 0, 1803, 0, 0, 0, 1243, 0, 0, 0, 0, 0, 0, 0, 0, 0, 40, 0, 0, 0, 690, 0, 0, 0, 0, 0, 0, 1507, 0, 0, 958, 1321, 0, 0, 0, 0, 0, 0, 654, 0, 0, 0, 0, 0, 1341, 0, 0, 0, 1598, 0, 0, 0, 0, 0, 0, 0, 0, 0, 0, 0, 0, 0, 0, 0, 0, 0, 0, 0, 0, 0, 0, 0, 0, 0];
